SECTION Graph
Nodes 301
Edges 300

E 7 2001 1
E 7 2022 1
E 7 2038 1
E 7 2197 1
E 21 2013 1
E 21 2200 1
E 23 2107 1
E 23 2200 1
E 94 2001 1
E 94 2075 1
E 94 2200 1
E 119 2001 1
E 119 2046 1
E 119 2052 1
E 119 2162 1
E 139 2001 1
E 139 2054 1
E 139 2146 1
E 139 2153 1
E 139 2189 1
E 287 2051 1
E 287 2200 1
E 298 2001 1
E 298 2114 1
E 298 2178 1
E 298 2187 1
E 298 2188 1
E 335 2001 1
E 335 2053 1
E 335 2134 1
E 335 2176 1
E 335 2177 1
E 339 2001 1
E 339 2017 1
E 339 2058 1
E 339 2166 1
E 343 2003 1
E 343 2063 1
E 343 2072 1
E 343 2077 1
E 362 2005 1
E 362 2050 1
E 384 2001 1
E 384 2068 1
E 384 2071 1
E 384 2112 1
E 386 2027 1
E 386 2200 1
E 404 2001 1
E 404 2111 1
E 404 2155 1
E 404 2168 1
E 429 2009 1
E 429 2172 1
E 435 2003 1
E 435 2035 1
E 435 2106 1
E 513 2012 1
E 513 2196 1
E 514 2042 1
E 514 2156 1
E 573 2001 1
E 573 2180 1
E 599 2156 1
E 599 2171 1
E 612 2003 1
E 612 2154 1
E 627 2001 1
E 627 2011 1
E 627 2067 1
E 637 2001 1
E 637 2109 1
E 637 2121 1
E 637 2199 1
E 642 2126 1
E 642 2196 1
E 653 2001 1
E 653 2039 1
E 653 2159 1
E 653 2173 1
E 653 2191 1
E 653 2193 1
E 656 2003 1
E 656 2056 1
E 656 2078 1
E 656 2123 1
E 681 2003 1
E 681 2089 1
E 681 2094 1
E 718 2003 1
E 718 2045 1
E 718 2115 1
E 718 2145 1
E 719 2003 1
E 719 2030 1
E 722 2001 1
E 722 2092 1
E 722 2157 1
E 722 2174 1
E 725 2001 1
E 725 2014 1
E 725 2164 1
E 729 2003 1
E 729 2131 1
E 764 2005 1
E 764 2156 1
E 775 2005 1
E 775 2025 1
E 801 2003 1
E 801 2010 1
E 801 2096 1
E 820 2100 1
E 820 2200 1
E 852 2003 1
E 852 2175 1
E 852 2184 1
E 893 2003 1
E 893 2105 1
E 893 2163 1
E 893 2182 1
E 928 2001 1
E 928 2117 1
E 928 2142 1
E 928 2144 1
E 954 2001 1
E 954 2007 1
E 954 2028 1
E 954 2057 1
E 954 2140 1
E 954 2183 1
E 958 2001 1
E 958 2049 1
E 958 2079 1
E 958 2133 1
E 987 2019 1
E 987 2084 1
E 987 2200 1
E 997 2003 1
E 997 2165 1
E 1001 2037 1
E 1001 2200 1
E 1016 2005 1
E 1016 2021 1
E 1057 2001 1
E 1057 2008 1
E 1057 2024 1
E 1057 2066 1
E 1057 2160 1
E 1057 2169 1
E 1060 2003 1
E 1060 2125 1
E 1122 2062 1
E 1122 2200 1
E 1141 2143 1
E 1141 2200 1
E 1151 2001 1
E 1151 2120 1
E 1151 2148 1
E 1171 2018 1
E 1171 2083 1
E 1171 2136 1
E 1171 2200 1
E 1174 2001 1
E 1174 2044 1
E 1174 2116 1
E 1174 2119 1
E 1174 2135 1
E 1174 2138 1
E 1188 2029 1
E 1188 2196 1
E 1189 2003 1
E 1189 2101 1
E 1230 2081 1
E 1230 2196 1
E 1244 2003 1
E 1244 2161 1
E 1250 2095 1
E 1250 2200 1
E 1285 2003 1
E 1285 2137 1
E 1300 2001 1
E 1300 2032 1
E 1300 2069 1
E 1300 2110 1
E 1300 2113 1
E 1300 2122 1
E 1300 2167 1
E 1316 2001 1
E 1316 2003 1
E 1316 2179 1
E 1341 2103 1
E 1341 2139 1
E 1341 2200 1
E 1342 2003 1
E 1342 2195 1
E 1364 2001 1
E 1364 2061 1
E 1364 2087 1
E 1364 2102 1
E 1387 2041 1
E 1387 2200 1
E 1406 2001 1
E 1406 2006 1
E 1406 2016 1
E 1406 2031 1
E 1406 2048 1
E 1406 2108 1
E 1407 2005 1
E 1407 2097 1
E 1411 2076 1
E 1411 2172 1
E 1435 2040 1
E 1435 2200 1
E 1464 2001 1
E 1464 2141 1
E 1468 2124 1
E 1468 2196 1
E 1490 2005 1
E 1490 2130 1
E 1493 2099 1
E 1493 2200 1
E 1512 2186 1
E 1512 2200 1
E 1525 2001 1
E 1525 2015 1
E 1526 2001 1
E 1526 2088 1
E 1526 2098 1
E 1534 2070 1
E 1534 2200 1
E 1555 2005 1
E 1555 2026 1
E 1582 2001 1
E 1582 2009 1
E 1582 2093 1
E 1582 2127 1
E 1602 2001 1
E 1602 2149 1
E 1602 2185 1
E 1631 2033 1
E 1631 2196 1
E 1670 2002 1
E 1670 2060 1
E 1670 2158 1
E 1670 2200 1
E 1675 2020 1
E 1675 2043 1
E 1675 2200 1
E 1695 2064 1
E 1695 2200 1
E 1696 2085 1
E 1696 2200 1
E 1701 2003 1
E 1701 2073 1
E 1753 2001 1
E 1753 2104 1
E 1753 2152 1
E 1753 2194 1
E 1774 2036 1
E 1774 2190 1
E 1774 2200 1
E 1791 2003 1
E 1791 2055 1
E 1791 2090 1
E 1823 2170 1
E 1823 2200 1
E 1836 2003 1
E 1836 2086 1
E 1836 2129 1
E 1843 2001 1
E 1843 2091 1
E 1869 2001 1
E 1869 2004 1
E 1869 2047 1
E 1869 2151 1
E 1869 2181 1
E 1869 2198 1
E 1874 2009 1
E 1874 2082 1
E 1901 2003 1
E 1901 2074 1
E 1911 2005 1
E 1911 2128 1
E 1913 2001 1
E 1913 2005 1
E 1913 2023 1
E 1913 2059 1
E 1913 2118 1
E 1913 2132 1
E 1913 2147 1
E 1913 2150 1
E 1922 2065 1
E 1922 2200 1
E 1940 2003 1
E 1940 2034 1
E 1940 2192 1
E 1986 2003 1
E 1986 2080 1
E 1987 2196 1
E 1987 2200 1
END
SECTION Terminals
T 2001
T 2002
T 2003
T 2004
T 2005
T 2006
T 2007
T 2008
T 2009
T 2010
T 2011
T 2012
T 2013
T 2014
T 2015
T 2016
T 2017
T 2018
T 2019
T 2020
T 2021
T 2022
T 2023
T 2024
T 2025
T 2026
T 2027
T 2028
T 2029
T 2030
T 2031
T 2032
T 2033
T 2034
T 2035
T 2036
T 2037
T 2038
T 2039
T 2040
T 2041
T 2042
T 2043
T 2044
T 2045
T 2046
T 2047
T 2048
T 2049
T 2050
T 2051
T 2052
T 2053
T 2054
T 2055
T 2056
T 2057
T 2058
T 2059
T 2060
T 2061
T 2062
T 2063
T 2064
T 2065
T 2066
T 2067
T 2068
T 2069
T 2070
T 2071
T 2072
T 2073
T 2074
T 2075
T 2076
T 2077
T 2078
T 2079
T 2080
T 2081
T 2082
T 2083
T 2084
T 2085
T 2086
T 2087
T 2088
T 2089
T 2090
T 2091
T 2092
T 2093
T 2094
T 2095
T 2096
T 2097
T 2098
T 2099
T 2100
T 2101
T 2102
T 2103
T 2104
T 2105
T 2106
T 2107
T 2108
T 2109
T 2110
T 2111
T 2112
T 2113
T 2114
T 2115
T 2116
T 2117
T 2118
T 2119
T 2120
T 2121
T 2122
T 2123
T 2124
T 2125
T 2126
T 2127
T 2128
T 2129
T 2130
T 2131
T 2132
T 2133
T 2134
T 2135
T 2136
T 2137
T 2138
T 2139
T 2140
T 2141
T 2142
T 2143
T 2144
T 2145
T 2146
T 2147
T 2148
T 2149
T 2150
T 2151
T 2152
T 2153
T 2154
T 2155
T 2156
T 2157
T 2158
T 2159
T 2160
T 2161
T 2162
T 2163
T 2164
T 2165
T 2166
T 2167
T 2168
T 2169
T 2170
T 2171
T 2172
T 2173
T 2174
T 2175
T 2176
T 2177
T 2178
T 2179
T 2180
T 2181
T 2182
T 2183
T 2184
T 2185
T 2186
T 2187
T 2188
T 2189
T 2190
T 2191
T 2192
T 2193
T 2194
T 2195
T 2196
T 2197
T 2198
T 2199
T 2200
END
SECTION Cost
300
END
